************************************************************************
file with basedata            : mm64_.bas
initial value random generator: 1046966116
************************************************************************
projects                      :  1
jobs (incl. supersource/sink ):  12
horizon                       :  90
RESOURCES
  - renewable                 :  2   R
  - nonrenewable              :  2   N
  - doubly constrained        :  0   D
************************************************************************
PROJECT INFORMATION:
pronr.  #jobs rel.date duedate tardcost  MPM-Time
    1     10      0       13        4       13
************************************************************************
PRECEDENCE RELATIONS:
jobnr.    #modes  #successors   successors
   1        1          3           2   3   4
   2        3          1          11
   3        3          2           6   9
   4        3          3           5   7   8
   5        3          1          11
   6        3          1          10
   7        3          2           9  10
   8        3          2          10  11
   9        3          1          12
  10        3          1          12
  11        3          1          12
  12        1          0        
************************************************************************
REQUESTS/DURATIONS:
jobnr. mode duration  R 1  R 2  N 1  N 2
------------------------------------------------------------------------
  1      1     0       0    0    0    0
  2      1     7       6    5    4    2
         2    10       5    3    2    2
         3    10       4    4    3    1
  3      1     3       7    9    7    8
         2     7       6    5    5    7
         3    10       2    4    5    7
  4      1     1       7    5    6    9
         2     2       5    5    6    9
         3    10       5    5    5    6
  5      1     2       2    6    5    6
         2     3       2    5    3    6
         3     8       2    4    2    5
  6      1     1       5    2    6    4
         2     7       5    2    5    3
         3     9       5    2    3    3
  7      1     2       6    7    6    9
         2     3       3    6    5    6
         3    10       2    5    3    1
  8      1     3       4    9    9    8
         2     5       4    8    9    7
         3     6       3    8    8    7
  9      1     3       4    9    6   10
         2     6       3    8    5    8
         3     9       2    6    3    6
 10      1     2       7   10    4    8
         2     6       5    9    4    6
         3    10       4    9    4    1
 11      1     6       7    4    4    7
         2     6       5    5    4    7
         3     8       5    3    3    4
 12      1     0       0    0    0    0
************************************************************************
RESOURCEAVAILABILITIES:
  R 1  R 2  N 1  N 2
   25   36   57   71
************************************************************************
MAXIMAL LAGS:
from  to  type  delay
    1   12   ES      0
    1    2   ES      0
    2   12   ES      0
    1    3   ES      0
    3   12   ES      0
    1    4   ES      0
    4   12   ES      0
    1    5   ES      0
    5   12   ES      0
    1    6   ES      0
    6   12   ES      0
    1    7   ES      0
    7   12   ES      0
    1    8   ES      0
    8   12   ES      0
    1    9   ES      0
    9   12   ES      0
    1   10   ES      0
   10   12   ES      0
    1   11   ES      0
   11   12   ES      0
    1   12   ES      0
    2   11   SS     -8
    2   11   SE      0
    2   11   ES     -8
    2   11   EE      6
    3    6   SS    -11
    3    6   SE     -2
    3    6   ES     -8
    3    6   EE      7
    3    9   SS    -10
    3    9   SE      4
    3    9   ES     12
    3    9   EE      9
    4    5   SS     11
    4    5   SE      2
    5    4   SE      0
    4    5   ES      0
    4    5   EE      9
    4    7   SS      5
    4    7   SE     -5
    4    7   ES     11
    4    7   EE     -9
    4    8   SS      0
    4    8   SE    -11
    4    8   ES      5
    4    8   EE     -7
    5   11   SS     10
    5   11   SE      2
    5   11   ES     -9
    5   11   EE      8
    6   10   SS      3
    6   10   SE     -7
    6   10   ES    -10
    6   10   EE      2
    7    9   SS      9
    7    9   SE     -6
    7    9   ES     -6
    7    9   EE      2
    7   10   SS     10
    7   10   SE     11
    7   10   ES     -6
    7   10   EE      6
    8   10   SS      8
    8   10   SE      6
    8   10   ES     -7
    8   10   EE    -12
    8   11   SS     -2
    8   11   SE     -7
    8   11   ES     -7
    8   11   EE     -8
************************************************************************
